/CLEAR
/PREP7
/TITLE, Homework 3 - Thick-Walled Cylinder - Fine Mesh

ri=58
ro=113
Lz=1380
Pi=53
E=200000
nu=0.30

nrad=30
nax=200

ET,1,PLANE182
KEYOPT,1,3,1

MP,EX,1,E
MP,PRXY,1,nu

K,1,ri,0
K,2,ro,0
K,3,ro,Lz
K,4,ri,Lz

L,1,2
L,2,3
L,3,4
L,4,1

AL,1,2,3,4

LESIZE,1,,,nrad
LESIZE,3,,,nrad
LESIZE,2,,,nax
LESIZE,4,,,nax

MSHKEY,1
AMESH,ALL

/SOLU
ANTYPE,STATIC

mid=Lz/2
tol=0.001

ALLSEL,ALL
NSEL,S,LOC,X,ri
NSEL,R,LOC,Y,mid-tol,mid+tol
*GET,nfix,NODE,0,NUM,MIN
D,nfix,UY,0

ALLSEL,ALL
SFL,4,PRES,Pi

ALLSEL,ALL
SOLVE
FINISH

/POST1
SET,LAST

PLNSOL,U,X
PLNSOL,S,X
PLNSOL,S,Z

PATH,RADPATH,2,3,30
PPATH,1,,58,690,0
PPATH,2,,113,690,0

PDEF,SIGR,S,X,AVG
PDEF,SIGT,S,Z,AVG
PDEF,URAD,U,X,AVG

/OUTPUT,path_results,txt
PRPATH,SIGR,SIGT,URAD
/OUTPUT

FINISH